Route #1: 26 58 12 40 17 51
Route #2: 6 16 63 23 56 49 24 3
Route #3: 35 14 59 53 7
Route #4: 11 38 10 31 39
Route #5: 9 25 55 18 50 32 44
Route #6: 46 8 19 54 13 52 34
Route #7: 27 57 15 37 20 60 36 47
Route #8: 21 61 22 64 42 41 43
Route #9: 33 1 62 28 2
Route #10: 30 48 5 29 45 4
Cost 824